
  12    4
  10   10   10   10

   0   0   0   0   0   2 2 3 
   4  10  10  10  10   3 7 5 4 
   6  10  10  10  10   3 7 5 4 
   3  10  10  10  10   3 9 8 6 
   1  10  10  10  10   2 9 8 
   2  10  10  10  10   2 11 10 
   1  10  10  10  10   1 8 
  10  10  10  10  10   1 10 
   8  10  10  10  10   1 11 
   1  10  10  10  10   1 12
  10  10  10  10  10   1 12
   0   0   0   0   0   0 
